c description: Random 3-CNF over 13 variables and 26 clauses
p cnf 13 26
-4 -11 -12 0
2 7 10 0
4 -5 6 0
-2 9 -12 0
2 -6 -10 0
1 2 9 0
-2 -3 8 0
2 3 -6 0
7 8 12 0
-2 4 5 0
3 -4 -9 0
6 -11 -13 0
3 -4 5 0
2 10 13 0
1 5 13 0
3 -9 12 0
-3 6 -10 0
-1 -5 -11 0
-1 -4 -11 0
-2 -7 -10 0
6 7 8 0
-2 -8 11 0
2 7 -10 0
-2 -6 -10 0
2 5 -7 0
6 12 -13 0